&CONTROL
    calculation   = "relax"
    forc_conv_thr =  1.00000e-03
    max_seconds   =  1.72800e+05
    nstep         = 100
    outdir        = "./"
    prefix        = "espresso"
    pseudo_dir    = "/root/simulations/.pseudopot"
    title         = "si_optimize(Optimize)"
    wf_collect    = .TRUE.
    wfcdir        = "./"
/

&SYSTEM
    a           =  5.46873e+00
    degauss     =  1.00000e-02
    ecutrho     =  3.93692e+02
    ecutwfc     =  4.37435e+01
    ibrav       = 1
    nat         = 8
    ntyp        = 1
    occupations = "smearing"
    smearing    = "gaussian"
/

&ELECTRONS
    conv_thr         =  1.00000e-06
    electron_maxstep = 200
    mixing_beta      =  7.00000e-01
    startingpot      = "atomic"
    startingwfc      = "atomic+random"
/

&IONS
    ion_dynamics = "bfgs"
/

&CELL
/

K_POINTS {automatic}
 2  2  2  0 0 0

ATOMIC_SPECIES
Si     28.08550  Si.pbe-nl-rrkjus_psl.1.0.0.UPF

ATOMIC_POSITIONS {angstrom}
Si      0.000000   0.000000   0.000000
Si      4.101546   4.101546   1.367182
Si      0.000000   2.734364   2.734364
Si      4.101546   1.367182   4.101546
Si      2.734364   0.000000   2.734364
Si      1.367182   4.101546   4.101546
Si      2.734364   2.734364   0.000000
Si      1.367182   1.367182   1.367182


